(set-info :source |printed by MathSAT|)
(declare-fun |!{$(in_main#0)<swapped>}| () Int)
(declare-fun |!{$(in_main#0)<swapped>}.next| () Int)
(declare-fun |!{$(in_main#0)<x>}| () Int)
(declare-fun |!{$(in_main#0)<x>}.next| () Int)
(declare-fun |!{$(in_main#0)<y>}| () Int)
(declare-fun |!{$(in_main#0)<y>}.next| () Int)
(declare-fun |!{$(in_main#0)<a.1>}| () (Array Int Int))
(declare-fun |!{$(in_main#0)<a.1>}.next| () (Array Int Int))
(declare-fun |!{$(in_main#0)<N>}| () Int)
(declare-fun |!{$(in_main#0)<N>}.next| () Int)
(declare-fun |!{$(in_main#0)<i>}| () Int)
(declare-fun |!{$(in_main#0)<i>}.next| () Int)
(declare-fun |!{$(in_main#0)<j>}| () Int)
(declare-fun |!{$(in_main#0)<j>}.next| () Int)
(declare-fun |!{$(in_main#0)<$(in___VERIFIER_nondet_int#0)<h#<__VERIFIER_nondet_int.return>>>}| () Int)
(declare-fun |!{$(in_main#0)<$(in___VERIFIER_nondet_int#1)<h#<__VERIFIER_nondet_int.return>>>}| () Int)
(declare-fun !pc () Int)
(declare-fun !pc.next () Int)
(declare-fun |%{$(in_main#0)<i>}#1| () Int)
(declare-fun |%{$(in_main#0)<swapped>}#1| () Int)
(declare-fun |%{$(in_main#0)<x>}#1| () Int)
(declare-fun |%{$(in_main#0)<y>}#1| () Int)
(declare-fun |%{$(in_main#0)<a.1>}#1| () (Array Int Int))
(declare-fun |%{$(in_main#0)<swapped>}#2| () Int)
(declare-fun |%{$(in_main#0)<a.1>}#3| () (Array Int Int))
(define-fun .def_36 () Int (! !pc :next !pc.next))
(define-fun .def_39 () Bool (! (= .def_36 2) :init true))
(define-fun .def_265 () Bool (= .def_36 28))
(define-fun .def_239 () Bool (= !pc.next 48))
(define-fun .def_268 () Bool (and .def_239 .def_265))
(define-fun .def_257 () Bool (= |!{$(in_main#0)<swapped>}.next| 1))
(define-fun .def_10 () Int (! |!{$(in_main#0)<x>}| :next |!{$(in_main#0)<x>}.next|))
(define-fun .def_74 () Bool (= .def_10 |!{$(in_main#0)<x>}.next|))
(define-fun .def_258 () Bool (and .def_74 .def_257))
(define-fun .def_12 () Int (! |!{$(in_main#0)<y>}| :next |!{$(in_main#0)<y>}.next|))
(define-fun .def_92 () Bool (= .def_12 |!{$(in_main#0)<y>}.next|))
(define-fun .def_259 () Bool (and .def_92 .def_258))
(define-fun .def_14 () (Array Int Int) (! |!{$(in_main#0)<a.1>}| :next |!{$(in_main#0)<a.1>}.next|))
(define-fun .def_81 () Bool (= .def_14 |!{$(in_main#0)<a.1>}.next|))
(define-fun .def_260 () Bool (and .def_81 .def_259))
(define-fun .def_16 () Int (! |!{$(in_main#0)<N>}| :next |!{$(in_main#0)<N>}.next|))
(define-fun .def_83 () Bool (= .def_16 |!{$(in_main#0)<N>}.next|))
(define-fun .def_261 () Bool (and .def_83 .def_260))
(define-fun .def_18 () Int (! |!{$(in_main#0)<i>}| :next |!{$(in_main#0)<i>}.next|))
(define-fun .def_85 () Bool (= .def_18 |!{$(in_main#0)<i>}.next|))
(define-fun .def_262 () Bool (and .def_85 .def_261))
(define-fun .def_20 () Int (! |!{$(in_main#0)<j>}| :next |!{$(in_main#0)<j>}.next|))
(define-fun .def_87 () Bool (= .def_20 |!{$(in_main#0)<j>}.next|))
(define-fun .def_263 () Bool (and .def_87 .def_262))
(define-fun .def_244 () Bool (<= .def_16 .def_20))
(define-fun .def_264 () Bool (and .def_244 .def_263))
(define-fun .def_269 () Bool (and .def_264 .def_268))
(define-fun .def_67 () Bool (= !pc.next 28))
(define-fun .def_266 () Bool (and .def_67 .def_265))
(define-fun .def_252 () Int (* (- 1) |!{$(in_main#0)<j>}.next|))
(define-fun .def_253 () Int (+ .def_20 .def_252))
(define-fun .def_254 () Bool (= .def_253 (- 1)))
(define-fun .def_246 () (Array Int Int) (store .def_14 .def_20 |!{$(in_main#0)<$(in___VERIFIER_nondet_int#1)<h#<__VERIFIER_nondet_int.return>>>}|))
(define-fun .def_248 () Bool (= |!{$(in_main#0)<a.1>}.next| .def_246))
(define-fun .def_8 () Int (! |!{$(in_main#0)<swapped>}| :next |!{$(in_main#0)<swapped>}.next|))
(define-fun .def_73 () Bool (= .def_8 |!{$(in_main#0)<swapped>}.next|))
(define-fun .def_75 () Bool (and .def_73 .def_74))
(define-fun .def_230 () Bool (and .def_75 .def_92))
(define-fun .def_249 () Bool (and .def_230 .def_248))
(define-fun .def_250 () Bool (and .def_83 .def_249))
(define-fun .def_251 () Bool (and .def_85 .def_250))
(define-fun .def_255 () Bool (and .def_251 .def_254))
(define-fun .def_245 () Bool (not .def_244))
(define-fun .def_256 () Bool (and .def_245 .def_255))
(define-fun .def_267 () Bool (and .def_256 .def_266))
(define-fun .def_270 () Bool (or .def_267 .def_269))
(define-fun .def_236 () Bool (= .def_36 57))
(define-fun .def_240 () Bool (and .def_236 .def_239))
(define-fun .def_231 () Bool (and .def_81 .def_230))
(define-fun .def_232 () Bool (and .def_83 .def_231))
(define-fun .def_233 () Bool (and .def_85 .def_232))
(define-fun .def_234 () Bool (and .def_87 .def_233))
(define-fun .def_191 () Bool (<= .def_16 .def_18))
(define-fun .def_235 () Bool (and .def_191 .def_234))
(define-fun .def_241 () Bool (and .def_235 .def_240))
(define-fun .def_184 () Bool (= !pc.next 57))
(define-fun .def_237 () Bool (and .def_184 .def_236))
(define-fun .def_223 () Int (* (- 1) |!{$(in_main#0)<i>}.next|))
(define-fun .def_224 () Int (+ .def_18 .def_223))
(define-fun .def_225 () Bool (= .def_224 (- 1)))
(define-fun .def_220 () Bool (= |!{$(in_main#0)<a.1>}.next| |%{$(in_main#0)<a.1>}#3|))
(define-fun .def_217 () Bool (= |!{$(in_main#0)<swapped>}.next| |%{$(in_main#0)<swapped>}#2|))
(define-fun .def_218 () Bool (and .def_74 .def_217))
(define-fun .def_219 () Bool (and .def_92 .def_218))
(define-fun .def_221 () Bool (and .def_219 .def_220))
(define-fun .def_222 () Bool (and .def_83 .def_221))
(define-fun .def_226 () Bool (and .def_222 .def_225))
(define-fun .def_227 () Bool (and .def_87 .def_226))
(define-fun .def_193 () Int (select .def_14 .def_18))
(define-fun .def_194 () Int (+ .def_18 (- 1)))
(define-fun .def_195 () Int (select .def_14 .def_194))
(define-fun .def_198 () (Array Int Int) (store .def_14 .def_18 .def_195))
(define-fun .def_199 () (Array Int Int) (store .def_198 .def_194 .def_193))
(define-fun .def_211 () Bool (= .def_199 |%{$(in_main#0)<a.1>}#3|))
(define-fun .def_205 () Bool (= |%{$(in_main#0)<swapped>}#2| 1))
(define-fun .def_196 () Bool (<= .def_193 .def_195))
(define-fun .def_197 () Bool (not .def_196))
(define-fun .def_207 () Bool (and .def_197 .def_205))
(define-fun .def_213 () Bool (and .def_207 .def_211))
(define-fun .def_210 () Bool (= .def_14 |%{$(in_main#0)<a.1>}#3|))
(define-fun .def_204 () Bool (= .def_8 |%{$(in_main#0)<swapped>}#2|))
(define-fun .def_206 () Bool (and .def_196 .def_204))
(define-fun .def_212 () Bool (and .def_206 .def_210))
(define-fun .def_214 () Bool (or .def_212 .def_213))
(define-fun .def_228 () Bool (and .def_214 .def_227))
(define-fun .def_192 () Bool (not .def_191))
(define-fun .def_229 () Bool (and .def_192 .def_228))
(define-fun .def_238 () Bool (and .def_229 .def_237))
(define-fun .def_242 () Bool (or .def_238 .def_241))
(define-fun .def_182 () Bool (= .def_36 48))
(define-fun .def_155 () Bool (= !pc.next 84))
(define-fun .def_187 () Bool (and .def_155 .def_182))
(define-fun .def_173 () Bool (= |!{$(in_main#0)<x>}.next| 0))
(define-fun .def_174 () Bool (and .def_73 .def_173))
(define-fun .def_175 () Bool (and .def_92 .def_174))
(define-fun .def_176 () Bool (and .def_81 .def_175))
(define-fun .def_177 () Bool (and .def_83 .def_176))
(define-fun .def_178 () Bool (and .def_85 .def_177))
(define-fun .def_179 () Bool (and .def_87 .def_178))
(define-fun .def_162 () Bool (= .def_8 0))
(define-fun .def_180 () Bool (and .def_162 .def_179))
(define-fun .def_188 () Bool (and .def_180 .def_187))
(define-fun .def_185 () Bool (and .def_182 .def_184))
(define-fun .def_169 () Bool (= |!{$(in_main#0)<i>}.next| 1))
(define-fun .def_164 () Bool (= |!{$(in_main#0)<swapped>}.next| 0))
(define-fun .def_165 () Bool (and .def_74 .def_164))
(define-fun .def_166 () Bool (and .def_92 .def_165))
(define-fun .def_167 () Bool (and .def_81 .def_166))
(define-fun .def_168 () Bool (and .def_83 .def_167))
(define-fun .def_170 () Bool (and .def_168 .def_169))
(define-fun .def_171 () Bool (and .def_87 .def_170))
(define-fun .def_163 () Bool (not .def_162))
(define-fun .def_172 () Bool (and .def_163 .def_171))
(define-fun .def_186 () Bool (and .def_172 .def_185))
(define-fun .def_189 () Bool (or .def_186 .def_188))
(define-fun .def_147 () Bool (= .def_36 93))
(define-fun .def_156 () Bool (and .def_147 .def_155))
(define-fun .def_137 () Int (* (- 1) |!{$(in_main#0)<x>}.next|))
(define-fun .def_138 () Int (+ .def_10 .def_137))
(define-fun .def_139 () Bool (= .def_138 (- 1)))
(define-fun .def_140 () Bool (and .def_73 .def_139))
(define-fun .def_141 () Bool (and .def_92 .def_140))
(define-fun .def_142 () Bool (and .def_81 .def_141))
(define-fun .def_143 () Bool (and .def_83 .def_142))
(define-fun .def_144 () Bool (and .def_85 .def_143))
(define-fun .def_145 () Bool (and .def_87 .def_144))
(define-fun .def_109 () Bool (<= .def_16 .def_12))
(define-fun .def_146 () Bool (and .def_109 .def_145))
(define-fun .def_157 () Bool (and .def_146 .def_156))
(define-fun .def_101 () Bool (= !pc.next 93))
(define-fun .def_152 () Bool (and .def_101 .def_147))
(define-fun .def_77 () Int (* (- 1) |!{$(in_main#0)<y>}.next|))
(define-fun .def_128 () Int (+ .def_12 .def_77))
(define-fun .def_129 () Bool (= .def_128 (- 1)))
(define-fun .def_130 () Bool (and .def_75 .def_129))
(define-fun .def_131 () Bool (and .def_81 .def_130))
(define-fun .def_132 () Bool (and .def_83 .def_131))
(define-fun .def_133 () Bool (and .def_85 .def_132))
(define-fun .def_134 () Bool (and .def_87 .def_133))
(define-fun .def_112 () Int (select .def_14 .def_12))
(define-fun .def_111 () Int (select .def_14 .def_10))
(define-fun .def_113 () Bool (<= .def_111 .def_112))
(define-fun .def_114 () Int (ite .def_113 1 0))
(define-fun .def_115 () Bool (= .def_114 0))
(define-fun .def_116 () Bool (not .def_115))
(define-fun .def_135 () Bool (and .def_116 .def_134))
(define-fun .def_110 () Bool (not .def_109))
(define-fun .def_136 () Bool (and .def_110 .def_135))
(define-fun .def_153 () Bool (and .def_136 .def_152))
(define-fun .def_149 () Bool (= !pc.next 113))
(define-fun .def_150 () Bool (and .def_147 .def_149))
(define-fun .def_120 () Bool (and .def_73 .def_115))
(define-fun .def_121 () Bool (and .def_74 .def_120))
(define-fun .def_122 () Bool (and .def_92 .def_121))
(define-fun .def_123 () Bool (and .def_81 .def_122))
(define-fun .def_124 () Bool (and .def_83 .def_123))
(define-fun .def_125 () Bool (and .def_85 .def_124))
(define-fun .def_126 () Bool (and .def_87 .def_125))
(define-fun .def_127 () Bool (and .def_110 .def_126))
(define-fun .def_151 () Bool (and .def_127 .def_150))
(define-fun .def_154 () Bool (or .def_151 .def_153))
(define-fun .def_158 () Bool (or .def_154 .def_157))
(define-fun .def_104 () Bool (= !pc.next 0))
(define-fun .def_99 () Bool (= .def_36 84))
(define-fun .def_105 () Bool (and .def_99 .def_104))
(define-fun .def_70 () Bool (<= .def_16 .def_10))
(define-fun .def_90 () Bool (and .def_70 .def_73))
(define-fun .def_91 () Bool (and .def_74 .def_90))
(define-fun .def_93 () Bool (and .def_91 .def_92))
(define-fun .def_94 () Bool (and .def_81 .def_93))
(define-fun .def_95 () Bool (and .def_83 .def_94))
(define-fun .def_96 () Bool (and .def_85 .def_95))
(define-fun .def_97 () Bool (and .def_87 .def_96))
(define-fun .def_106 () Bool (and .def_97 .def_105))
(define-fun .def_102 () Bool (and .def_99 .def_101))
(define-fun .def_78 () Int (+ .def_10 .def_77))
(define-fun .def_79 () Bool (= .def_78 (- 1)))
(define-fun .def_80 () Bool (and .def_75 .def_79))
(define-fun .def_82 () Bool (and .def_80 .def_81))
(define-fun .def_84 () Bool (and .def_82 .def_83))
(define-fun .def_86 () Bool (and .def_84 .def_85))
(define-fun .def_88 () Bool (and .def_86 .def_87))
(define-fun .def_71 () Bool (not .def_70))
(define-fun .def_89 () Bool (and .def_71 .def_88))
(define-fun .def_103 () Bool (and .def_89 .def_102))
(define-fun .def_107 () Bool (or .def_103 .def_106))
(define-fun .def_68 () Bool (and .def_39 .def_67))
(define-fun .def_64 () Bool (= |!{$(in_main#0)<j>}.next| 0))
(define-fun .def_62 () Bool (= |!{$(in_main#0)<i>}.next| |%{$(in_main#0)<i>}#1|))
(define-fun .def_60 () Bool (= |!{$(in_main#0)<N>}.next| |!{$(in_main#0)<$(in___VERIFIER_nondet_int#0)<h#<__VERIFIER_nondet_int.return>>>}|))
(define-fun .def_58 () Bool (= |!{$(in_main#0)<a.1>}.next| |%{$(in_main#0)<a.1>}#1|))
(define-fun .def_56 () Bool (= |!{$(in_main#0)<y>}.next| |%{$(in_main#0)<y>}#1|))
(define-fun .def_54 () Bool (= |!{$(in_main#0)<x>}.next| |%{$(in_main#0)<x>}#1|))
(define-fun .def_53 () Bool (= |!{$(in_main#0)<swapped>}.next| |%{$(in_main#0)<swapped>}#1|))
(define-fun .def_55 () Bool (and .def_53 .def_54))
(define-fun .def_57 () Bool (and .def_55 .def_56))
(define-fun .def_59 () Bool (and .def_57 .def_58))
(define-fun .def_61 () Bool (and .def_59 .def_60))
(define-fun .def_63 () Bool (and .def_61 .def_62))
(define-fun .def_65 () Bool (and .def_63 .def_64))
(define-fun .def_69 () Bool (and .def_65 .def_68))
(define-fun .def_108 () Bool (or .def_69 .def_107))
(define-fun .def_159 () Bool (or .def_108 .def_158))
(define-fun .def_190 () Bool (or .def_159 .def_189))
(define-fun .def_243 () Bool (or .def_190 .def_242))
(define-fun .def_271 () Bool (! (or .def_243 .def_270) :trans true))
(define-fun .def_160 () Bool (= .def_36 113))
(define-fun .def_272 () Bool (! (not .def_160) :invar-property 0 :invar-property-name ||))
(assert true)
